
Gurobi 10.0.1 (win64) logging started Tue May  2 01:27:21 2023

Set parameter LogFile to value "logFiles/N-1L-C/N-1L-14U-29F-23V-300D-varprod.log"
Gurobi Optimizer version 10.0.1 build v10.0.1rc0 (win64)

CPU model: Intel(R) Core(TM) i7-10700 CPU @ 2.90GHz, instruction set [SSE2|AVX|AVX2]
Thread count: 8 physical cores, 16 logical processors, using up to 16 threads

Optimize a model with 241647 rows, 2781604 columns and 17469428 nonzeros
Model fingerprint: 0x6b0c33d1
Variable types: 8540 continuous, 2773064 integer (2773064 binary)
Coefficient statistics:
  Matrix range     [1e+00, 2e+05]
  Objective range  [4e+01, 3e+07]
  Bounds range     [1e+00, 1e+00]
  RHS range        [1e+00, 4e+06]
Presolve removed 123080 rows and 63712 columns (presolve time = 5s) ...
Presolve removed 129634 rows and 63712 columns (presolve time = 10s) ...
Presolve removed 133210 rows and 63773 columns (presolve time = 15s) ...
Presolve removed 133301 rows and 63838 columns (presolve time = 20s) ...
Presolve removed 133301 rows and 63838 columns (presolve time = 25s) ...
Presolve removed 135327 rows and 65792 columns (presolve time = 30s) ...
Presolve removed 135295 rows and 65760 columns
Presolve time: 31.52s
Presolved: 106352 rows, 2715844 columns, 15747057 nonzeros
Variable types: 4912 continuous, 2710932 integer (2710932 binary)
Deterministic concurrent LP optimizer: primal simplex, dual simplex, and barrier
Showing barrier log only...

Root barrier log...

Elapsed ordering time = 5s
Ordering time: 7.16s

Barrier performed 0 iterations in 60.02 seconds (108.09 work units)
Time limit reached



Root relaxation: time limit, 0 iterations, 20.26 seconds (15.18 work units)

Explored 1 nodes (0 simplex iterations) in 60.73 seconds (94.84 work units)
Thread count was 16 (of 16 available processors)

Solution count 0

Time limit reached
Best objective -, best bound 2.009894198233e+13, gap -
IIS computation: initial model status unknown, solving to determine model status
Presolve removed 123164 rows and 62111 columns (presolve time = 5s) ...
Presolve removed 129716 rows and 65771 columns (presolve time = 10s) ...
Presolve removed 135327 rows and 66162 columns (presolve time = 15s) ...
Presolve removed 135327 rows and 66162 columns (presolve time = 20s) ...
Presolve removed 135327 rows and 66162 columns (presolve time = 25s) ...
Presolve removed 135327 rows and 66162 columns (presolve time = 30s) ...
Presolve removed 135295 rows and 66130 columns
Presolve time: 32.46s
Presolved: 106352 rows, 2715474 columns, 15744842 nonzeros
Variable types: 4911 continuous, 2710563 integer (2710563 binary)
Deterministic concurrent LP optimizer: primal simplex, dual simplex, and barrier
Showing barrier log only...

Root barrier log...

Elapsed ordering time = 5s
Ordering time: 5.04s

Barrier performed 0 iterations in 60.02 seconds (112.01 work units)
Time limit reached



Root relaxation: time limit, 0 iterations, 17.36 seconds (16.95 work units)

Explored 1 nodes (0 simplex iterations) in 60.33 seconds (98.81 work units)
Thread count was 16 (of 16 available processors)

Solution count 0

Time limit reached
Best objective -, best bound -0.000000000000e+00, gap -
IIS runtime: 60.57 seconds (98.81 work units)
